1 17
2 17
3 11
4 15
5 21
6 6
7 11
8 19
9 8
10 13
11 8
12 8
13 18
14 14
15 16
16 4
17 3
18 7
19 9
20 6
21 9
22 2
23 5
24 14
25 14
26 5
27 18
28 1
29 1
30 1
31 1
32 1
33 3
34 1
35 2
36 1
37 3
38 23
39 13
40 1
41 1
42 12
43 1
44 24
45 19
46 3
47 20
48 14
49 20
50 7
51 5
52 12
53 17
54 13
55 5
56 22
57 6
58 13
59 9
60 13
61 16
62 5
63 14
64 7
65 15
66 21
67 7
68 5
69 15
70 9
71 9
72 9
73 11
74 7
75 8
76 16
77 21
78 5
79 5
80 5
81 5
82 11
83 11
84 11
85 10
86 10
87 10
88 16
89 15
90 16
91 15
92 20
93 4
94 17
95 9
96 11
97 3
98 8
99 10
100 3
101 6
102 2
103 4
104 19
105 12
106 20
107 16
108 3
109 7
110 3
111 3
112 22
113 12
114 4
115 4
116 4
117 14
118 2
119 12
120 17
121 8
122 13
123 8
124 4
125 20
126 12
127 5
128 21
129 19
130 4
131 4
132 11
133 4
134 5
135 5
136 15
137 10
138 15
139 11
140 15
141 14
142 20
143 16
144 9
145 18
146 9
147 5
148 5
149 9
150 5
151 7
152 2
153 2
154 2
155 6
156 6
157 12
158 14
159 10
160 10
161 10
162 14
163 18
164 18
165 6
166 12
167 11
168 16
169 15
170 18
171 22
172 13
173 6
174 8
175 2
176 12
177 17
178 20
179 23
180 11
181 22
